# Solution for model GasLib-40
# Objective value = 7.3917193214306934e+01
loadshed[innode_1] 0
loadshed[innode_2] 0
loadshed[innode_3] 0
loadshed[innode_4] 0
loadshed[innode_5] 0
loadshed[innode_6] 0
loadshed[innode_7] 0
loadshed[innode_8] 0
loadshed[source_1] -3.8956470933388720e-02
loadshed[source_2] 2.3352428435237227e-01
loadshed[source_3] 2.7299536790572443e-01
loadshed[sink_1] 0.873411630604625
loadshed[sink_2] 0
loadshed[sink_3] 0
loadshed[sink_4] 0
loadshed[sink_5] 0
loadshed[sink_6] 0
loadshed[sink_7] 0
loadshed[sink_8] 0
loadshed[sink_9] 0.725541942019893
loadshed[sink_10] 0
loadshed[sink_11] 0
loadshed[sink_12] 1
loadshed[sink_13] 0
loadshed[sink_14] 0
loadshed[sink_15] 0
loadshed[sink_16] 0
loadshed[sink_17] 0
loadshed[sink_18] 0
loadshed[sink_19] 0
loadshed[sink_20] 0
loadshed[sink_21] 1
loadshed[sink_22] 0
loadshed[sink_23] 0
loadshed[sink_24] 9.2082384684902685e-01
loadshed[sink_25] 0
loadshed[sink_26] 0
loadshed[sink_27] 0
loadshed[sink_28] 0
loadshed[sink_29] 0
flow[source_1,sink_3] 1.6424891708887913e+02
flow[innode_1,sink_16] 1.6354166666666970e+01
flow[innode_6,sink_13] -4.5319756684812518e-01
flow[sink_13,sink_14] -1.6807364233514793e+01
flow[sink_14,sink_10] -3.3161530900181461e+01
flow[sink_25,sink_26] 1.7139530678569304e+02
flow[sink_26,sink_9] 0
flow[sink_9,sink_18] -4.4885328232163335e+00
flow[sink_26,sink_4] 1.5504114011902638e+02
flow[sink_4,sink_20] 3.5041043802647550e+01
flow[sink_18,sink_6] -2.0842699489883003e+01
flow[sink_25,innode_8] -1.3154058375554274e+02
flow[sink_6,sink_7] -5.5621280114369867e+01
flow[sink_6,sink_22] 1.8424413957820196e+01
flow[sink_7,sink_24] 1.2948600046565413e+00
flow[sink_22,sink_1] 2.0702472911535286e+00
flow[sink_24,sink_21] 0
flow[sink_21,sink_12] 0
flow[sink_7,sink_5] -7.3270306785693066e+01
flow[sink_5,sink_17] -8.9624473452359737e+01
flow[sink_17,sink_4] -1.0364592964971216e+02
flow[sink_17,sink_8] -2.3327104693142409e+00
flow[sink_3,sink_23] 16.3541666666697
flow[sink_8,sink_20] -1.8686877135980922e+01
flow[sink_25,sink_20] 0
flow[sink_25,sink_15] -5.5755692129969546e+01
flow[sink_15,sink_29] -7.2109858796636217e+01
flow[sink_29,sink_28] 1.6354166666667879e+01
flow[sink_29,sink_2] 1.6354166666684250e+01
flow[sink_2,sink_15] 0
flow[sink_29,innode_7] -1.2117235879665448e+02
flow[innode_4,sink_19] 4.4375664671605648e+01
flow[sink_19,innode_3] 4.0124980011842958e+01
flow[innode_4,innode_5] 7.0556699561909511e+01
flow[sink_27,innode_5] -7.0556699561909511e+01
flow[sink_27,sink_19] 5.4202532895242847e+01
flow[sink_10,sink_11] 3.2708333333333641e+01
flow[sink_10,innode_2] -4.2099050888338809e+01
flow[sink_10,innode_3] -4.0124980011842958e+01
flow[innode_6,sink_25] 4.5319756684812518e-01
flow[sink_11,innode_1] 1.6354166666666970e+01
flow[sink_19,innode_2] 4.2099050888338809e+01
flow[source_3,innode_4] 1.1493236423351516e+02
flow[source_2,innode_7] 1.2117235879665448e+02
flow[sink_3,innode_8] 1.3154058375554274e+02
pressure[innode_1] 76.8386687324882
pressure[innode_2] 7.9215478754315228e+01
pressure[innode_3] 7.9126626529740079e+01
pressure[innode_4] 81.01325
pressure[innode_5] 8.0964717381575028e+01
pressure[innode_6] 7.5389299579727677e+01
pressure[innode_7] 81.01325
pressure[innode_8] 8.0464228615532477e+01
pressure[source_1] 81.01325
pressure[source_2] 81.01325
pressure[source_3] 81.01325
pressure[sink_1] 1.0132500000000002e+00
pressure[sink_2] 7.7358094595896048e+01
pressure[sink_3] 8.0464228615532477e+01
pressure[sink_4] 4.3605696958576331e+01
pressure[sink_5] 3.2968315841353288e+01
pressure[sink_6] 1.7322206289241269e+00
pressure[sink_7] 2.4957682238289505e+00
pressure[sink_8] 3.9732710515493025e+01
pressure[sink_9] 1.01325
pressure[sink_10] 7.6990370040091747e+01
pressure[sink_11] 76.8386687324882
pressure[sink_12] 1.01325
pressure[sink_13] 7.5391797982177351e+01
pressure[sink_14] 75.4218761921441
pressure[sink_15] 7.5659769016121842e+01
pressure[sink_16] 7.5817018897670522e+01
pressure[sink_17] 3.9644691289253025e+01
pressure[sink_18] 1.1756584956725606e+00
pressure[sink_19] 7.9215478754315228e+01
pressure[sink_20] 4.1034923053252811e+01
pressure[sink_21] 1.01325
pressure[sink_22] 1.1479108011438350e+00
pressure[sink_23] 8.0299510603872690e+01
pressure[sink_24] 1.01325
pressure[sink_25] 7.5389299579727677e+01
pressure[sink_26] 6.3318028777693115e+01
pressure[sink_27] 8.0379227149973545e+01
pressure[sink_28] 7.7477081820742526e+01
pressure[sink_29] 77.7723640943597
interdiction[source_1,sink_3] 0
interdiction[innode_1,sink_16] 0
interdiction[innode_6,sink_13] 0
interdiction[sink_13,sink_14] 0
interdiction[sink_14,sink_10] 0
interdiction[sink_25,sink_26] 0
interdiction[sink_26,sink_9] 1
interdiction[sink_9,sink_18] 0
interdiction[sink_26,sink_4] 0
interdiction[sink_4,sink_20] 0
interdiction[sink_18,sink_6] 0
interdiction[sink_25,innode_8] 0
interdiction[sink_6,sink_7] 0
interdiction[sink_6,sink_22] 0
interdiction[sink_7,sink_24] 0
interdiction[sink_22,sink_1] 0
interdiction[sink_24,sink_21] 0
interdiction[sink_21,sink_12] 0
interdiction[sink_7,sink_5] 0
interdiction[sink_5,sink_17] 0
interdiction[sink_17,sink_4] 0
interdiction[sink_17,sink_8] 0
interdiction[sink_3,sink_23] 0
interdiction[sink_8,sink_20] 0
interdiction[sink_25,sink_20] 1
interdiction[sink_25,sink_15] 0
interdiction[sink_15,sink_29] 0
interdiction[sink_29,sink_28] 0
interdiction[sink_29,sink_2] 0
interdiction[sink_2,sink_15] 1
interdiction[sink_29,innode_7] 0
interdiction[innode_4,sink_19] 0
interdiction[sink_19,innode_3] 0
interdiction[innode_4,innode_5] 0
interdiction[sink_27,innode_5] 0
interdiction[sink_27,sink_19] 0
interdiction[sink_10,sink_11] 0
interdiction[sink_10,innode_2] 0
interdiction[sink_10,innode_3] 0
interdiction[innode_6,sink_25] 0
interdiction[sink_11,innode_1] 0
interdiction[sink_19,innode_2] 0
interdiction[source_3,innode_4] 0
interdiction[source_2,innode_7] 0
interdiction[sink_3,innode_8] 0
WCcheckFlow[source_1,sink_3] 39
WCcheckFlow[innode_1,sink_16] 1
WCcheckFlow[innode_6,sink_13] 13
WCcheckFlow[sink_13,sink_14] 12
WCcheckFlow[sink_14,sink_10] 11
WCcheckFlow[sink_25,sink_26] 15
WCcheckFlow[sink_26,sink_9] 0
WCcheckFlow[sink_9,sink_18] -1
WCcheckFlow[sink_26,sink_4] 14
WCcheckFlow[sink_4,sink_20] 1
WCcheckFlow[sink_18,sink_6] -2
WCcheckFlow[sink_25,innode_8] -36
WCcheckFlow[sink_6,sink_7] -5
WCcheckFlow[sink_6,sink_22] 2
WCcheckFlow[sink_7,sink_24] 3
WCcheckFlow[sink_22,sink_1] 1
WCcheckFlow[sink_24,sink_21] 2
WCcheckFlow[sink_21,sink_12] 1
WCcheckFlow[sink_7,sink_5] -9
WCcheckFlow[sink_5,sink_17] -10
WCcheckFlow[sink_17,sink_4] -12
WCcheckFlow[sink_17,sink_8] 1
WCcheckFlow[sink_3,sink_23] 1
WCcheckFlow[sink_8,sink_20] 0
WCcheckFlow[sink_25,sink_20] 0
WCcheckFlow[sink_25,sink_15] 6
WCcheckFlow[sink_15,sink_29] 5
WCcheckFlow[sink_29,sink_28] 1
WCcheckFlow[sink_29,sink_2] 1
WCcheckFlow[sink_2,sink_15] 0
WCcheckFlow[sink_29,innode_7] 2
WCcheckFlow[innode_4,sink_19] -4
WCcheckFlow[sink_19,innode_3] -5
WCcheckFlow[innode_4,innode_5] 2
WCcheckFlow[sink_27,innode_5] -1
WCcheckFlow[sink_27,sink_19] 0
WCcheckFlow[sink_10,sink_11] 3
WCcheckFlow[sink_10,innode_2] 1
WCcheckFlow[sink_10,innode_3] 6
WCcheckFlow[innode_6,sink_25] -14
WCcheckFlow[sink_11,innode_1] 2
WCcheckFlow[sink_19,innode_2] 0
WCcheckFlow[source_3,innode_4] -1
WCcheckFlow[source_2,innode_7] -1
WCcheckFlow[sink_3,innode_8] 37
